sing20221014.12
TTAA  64111 48698
99004 29257 29004 00072 28656 27004 92756 23237 27516
85493 19037 27516 70135 09830 27018 50587 04739 24010
40759 15132 27010 30970 29545 18508 25097 40356 17006
20246 53157 08027 15425 68558 07554 10657 76759 10041
88110 81156 07060
77127 07070 41817=
TTCC  64115 48698
70865 74565 16008 50064 58584 18502
88999
77999=
TTDD  6411/ 48698
11934 77559 22906 74961 33841 75361 44806 72164 55719 74964
66584 71769 77563 68573 88541 68973 99522 66776 11503 59783
22488 58992
21212 11913 12506 22899 21004 33891 21506 44870 17508 55808
16014 66726 18016 77689 13004 88684 08502 99681 00502 11679
33502 22655 31018 33503 07504 44502 09502 55501 16502 66497
21004 77488 24010=
